
******************************************************************************
This program contains Ipopt, a library for large-scale nonlinear optimization.
 Ipopt is released as open source code under the Eclipse Public License (EPL).
         For more information visit http://projects.coin-or.org/Ipopt
******************************************************************************

This is Ipopt version 3.12.6, running with linear solver ma57.

Number of nonzeros in equality constraint Jacobian...:    22497
Number of nonzeros in inequality constraint Jacobian.:        0
Number of nonzeros in Lagrangian Hessian.............:    39984

Reallocating memory for MA57: lfact (8535601)
Total number of variables............................:    10000
                     variables with only lower bounds:        0
                variables with lower and upper bounds:    10000
                     variables with only upper bounds:        0
Total number of equality constraints.................:     7500
Total number of inequality constraints...............:        0
        inequality constraints with only lower bounds:        0
   inequality constraints with lower and upper bounds:        0
        inequality constraints with only upper bounds:        0

iter    objective    inf_pr   inf_du lg(mu)  ||d||  lg(rg) alpha_du alpha_pr  ls
   0  7.0340625e+06 3.00e+00 1.00e+02  -1.0 0.00e+00    -  0.00e+00 0.00e+00   0
   1  2.0607859e+07 1.33e-15 6.24e+03  -1.0 6.24e-01   4.0 4.28e-01 1.00e+00h  1
   2  1.9390682e+07 1.78e-15 1.36e+02  -1.0 4.07e-02   3.5 1.00e+00 1.00e+00f  1
   3  1.5474017e+07 1.78e-15 1.61e+02  -1.0 1.45e-01   3.0 1.00e+00 1.00e+00f  1
   4 -2.0501995e+06 1.33e-15 2.96e+02  -1.0 7.98e-01   2.6 7.53e-01 1.00e+00f  1
   5 -7.1016533e+06 1.33e-15 3.31e+02  -1.0 3.61e-01   3.0 1.00e+00 5.85e-01f  1
   6 -8.2513725e+06 1.78e-15 3.41e+02  -1.0 2.02e+00   2.5 7.15e-01 2.91e-02f  1
   7 -1.0965939e+07 1.78e-15 3.60e+02  -1.0 4.79e-01   2.9 1.00e+00 2.38e-01f  1
   8 -1.9577128e+07 1.78e-15 4.31e+02  -1.0 2.82e+00   2.5 6.02e-01 1.53e-01f  1
   9 -2.3494662e+07 1.78e-15 4.57e+02  -1.0 7.01e-01   2.9 1.00e+00 2.27e-01f  1
iter    objective    inf_pr   inf_du lg(mu)  ||d||  lg(rg) alpha_du alpha_pr  ls
  10 -3.5716571e+07 1.78e-15 5.55e+02  -1.0 4.74e+00   2.4 4.67e-01 1.26e-01f  1
  11 -4.0599351e+07 1.78e-15 5.85e+02  -1.0 1.04e+00   2.8 1.00e+00 1.82e-01f  1
  12 -6.6945257e+07 1.78e-15 7.80e+02  -1.0 8.33e+00   2.4 3.43e-01 1.45e-01f  1
  13 -7.8859474e+07 1.78e-15 8.47e+02  -1.0 1.71e+00   2.8 5.26e-01 2.44e-01f  1
  14 -1.1260428e+08 1.78e-15 1.09e+03  -1.0 1.91e+01   2.3 2.76e-01 7.92e-02f  1
  15 -1.3581723e+08 1.78e-15 1.21e+03  -1.0 2.81e+00   2.7 6.83e-01 2.59e-01f  1
  16 -1.9625551e+08 1.78e-15 1.67e+03  -1.0 5.58e+01   2.3 1.04e-01 5.10e-02f  1
  17 -1.9722226e+08 1.78e-15 1.64e+03  -1.0 5.02e+00   2.7 8.07e-01 5.67e-03f  1
  18 -2.0759682e+08 2.22e-15 1.62e+03  -1.0 1.91e+02   2.2 2.94e-02 2.97e-03f  1
  19 -2.1500598e+08 2.66e-15 1.52e+03  -1.0 5.26e+00   2.6 1.00e+00 3.54e-02f  1
iter    objective    inf_pr   inf_du lg(mu)  ||d||  lg(rg) alpha_du alpha_pr  ls
  20 -2.2289963e+08 2.22e-15 1.51e+03  -1.0 1.49e+00   3.1 1.00e+00 1.29e-01f  1
  21 -2.4821569e+08 2.66e-15 1.54e+03  -1.0 6.22e+00   2.6 5.68e-01 9.64e-02f  1
  22 -2.5192763e+08 2.22e-15 1.50e+03  -1.0 1.70e+00   3.0 1.00e+00 4.75e-02f  1
  23 -2.8012687e+08 2.66e-15 1.55e+03  -1.0 7.57e+00   2.5 3.93e-01 8.06e-02f  1
  24 -2.8425786e+08 2.66e-15 1.47e+03  -1.0 1.86e+00   3.0 1.00e+00 4.18e-02f  1
  25 -3.1314549e+08 2.66e-15 1.51e+03  -1.0 9.17e+00   2.5 2.88e-01 6.47e-02f  1
  26 -3.2241805e+08 2.66e-15 1.50e+03  -1.0 2.22e+00   2.9 1.00e+00 7.75e-02f  1
  27 -3.4257108e+08 2.22e-15 1.50e+03  -1.0 1.14e+01   2.4 2.28e-01 3.40e-02f  1
  28 -3.5306078e+08 2.66e-15 1.46e+03  -1.0 2.51e+00   2.9 1.00e+00 7.36e-02f  1
  29 -3.7788696e+08 2.66e-15 1.48e+03  -1.0 1.43e+01   2.4 1.57e-01 3.33e-02f  1
iter    objective    inf_pr   inf_du lg(mu)  ||d||  lg(rg) alpha_du alpha_pr  ls
  30 -3.8715360e+08 2.66e-15 1.44e+03  -1.0 2.81e+00   2.8 1.00e+00 5.55e-02f  1
  31 -4.2038664e+08 2.22e-15 1.48e+03  -1.0 1.94e+01   2.3 1.01e-01 3.32e-02f  1
  32 -4.2480773e+08 2.66e-15 1.42e+03  -1.0 3.28e+00   2.8 1.00e+00 2.19e-02f  1
  33 -4.6875434e+08 2.66e-15 1.46e+03  -1.0 2.69e+01   2.3 5.68e-02 3.27e-02f  1
  34 -4.7507911e+08 2.66e-15 1.39e+03  -1.0 3.79e+00   2.7 1.00e+00 2.56e-02f  1
  35 -5.0302479e+08 2.66e-15 1.43e+03  -1.0 4.32e+01   2.2 3.27e-02 1.36e-02f  1
  36 -5.0988799e+08 3.11e-15 1.36e+03  -1.0 4.30e+00   2.7 1.00e+00 2.36e-02f  1
  37 -5.3683646e+08 3.55e-15 1.40e+03  -1.0 7.40e+01   2.2 2.07e-02 8.90e-03f  1
  38 -5.4398260e+08 3.55e-15 1.31e+03  -1.0 4.76e+00   2.6 1.00e+00 2.11e-02f  1
  39 -5.5735156e+08 3.55e-15 1.37e+03  -1.0 9.88e+02   2.1 3.71e-03 1.00e-03f  1
iter    objective    inf_pr   inf_du lg(mu)  ||d||  lg(rg) alpha_du alpha_pr  ls
  40 -5.6313799e+08 3.55e-15 1.27e+03  -1.0 5.56e+00   2.6 1.00e+00 1.48e-02f  1
  41 -6.0006922e+08 2.66e-15 1.31e+03  -1.0 1.51e+00   3.0 1.00e+00 3.20e-01f  1
  42 -6.3303979e+08 2.22e-15 1.32e+03  -1.0 6.15e+00   2.5 3.67e-01 7.44e-02f  1
  43 -6.5371803e+08 2.22e-15 1.32e+03  -1.0 1.77e+00   2.9 1.00e+00 1.56e-01f  1
  44 -6.8400950e+08 2.22e-15 1.30e+03  -1.0 6.75e+00   2.4 2.62e-01 5.93e-02f  1
  45 -6.9375073e+08 3.11e-15 1.27e+03  -1.0 1.88e+00   2.9 1.00e+00 6.80e-02f  1
  46 -7.3505829e+08 3.11e-15 1.29e+03  -1.0 8.10e+00   2.4 2.05e-01 6.92e-02f  1
  47 -7.4331527e+08 3.11e-15 1.25e+03  -1.0 2.20e+00   2.8 1.00e+00 5.01e-02f  1
  48 -7.7164359e+08 2.66e-15 1.27e+03  -1.0 1.08e+01   2.3 1.48e-01 3.88e-02f  1
  49 -7.8112145e+08 3.11e-15 1.23e+03  -1.0 2.49e+00   2.8 1.00e+00 5.12e-02f  1
iter    objective    inf_pr   inf_du lg(mu)  ||d||  lg(rg) alpha_du alpha_pr  ls
  50 -8.1653226e+08 2.66e-15 1.25e+03  -1.0 1.52e+01   2.3 1.07e-01 3.90e-02f  1
  51 -8.2499901e+08 2.66e-15 1.21e+03  -1.0 2.96e+00   2.7 1.00e+00 4.00e-02f  1
  52 -8.5302856e+08 3.55e-15 1.23e+03  -1.0 2.11e+01   2.2 7.52e-02 2.27e-02f  1
  53 -8.6232866e+08 3.11e-15 1.18e+03  -1.0 3.36e+00   2.7 1.00e+00 3.77e-02f  1
  54 -8.9799368e+08 2.66e-15 1.21e+03  -1.0 3.08e+01   2.2 5.89e-02 2.17e-02f  1
  55 -9.0574684e+08 3.11e-15 1.18e+03  -1.0 3.85e+00   2.6 1.00e+00 2.80e-02f  1
  56 -9.3408155e+08 3.11e-15 1.20e+03  -1.0 5.46e+01   2.1 3.35e-02 1.25e-02f  1
  57 -9.4302796e+08 3.55e-15 1.15e+03  -1.0 4.39e+00   2.6 1.00e+00 2.89e-02f  1
  58 -9.6065104e+08 4.00e-15 1.16e+03  -1.0 1.16e+02   2.1 2.12e-02 7.05e-03f  1
  59 -9.7052194e+08 4.00e-15 1.13e+03  -1.0 4.93e+00   2.5 1.00e+00 3.01e-02f  1
iter    objective    inf_pr   inf_du lg(mu)  ||d||  lg(rg) alpha_du alpha_pr  ls
  60 -1.0081109e+09 2.66e-15 1.16e+03  -1.0 1.42e+00   2.9 1.00e+00 3.66e-01f  1
  61 -1.0221696e+09 2.22e-15 9.96e+02  -1.0 4.27e+00   2.5 5.21e-01 4.23e-02f  1
  62 -1.0542081e+09 2.22e-15 1.01e+03  -1.0 1.36e+00   2.9 1.00e+00 3.01e-01f  1
  63 -1.0835904e+09 2.22e-15 9.96e+02  -1.0 5.53e+00   2.4 3.38e-01 7.26e-02f  1
  64 -1.0936210e+09 2.66e-15 9.90e+02  -1.0 1.54e+00   2.8 1.00e+00 7.83e-02f  1
  65 -1.1276419e+09 2.22e-15 1.01e+03  -1.0 7.23e+00   2.4 1.76e-01 6.79e-02f  1
  66 -1.1359968e+09 2.66e-15 1.01e+03  -1.0 1.89e+00   2.8 1.00e+00 5.58e-02f  1
  67 -1.1721814e+09 2.22e-15 1.04e+03  -1.0 9.69e+00   2.3 9.47e-02 5.87e-02f  1
  68 -1.1794157e+09 2.66e-15 1.04e+03  -1.0 2.32e+00   2.7 1.00e+00 4.20e-02f  1
  69 -1.2013858e+09 2.66e-15 1.06e+03  -1.0 1.29e+01   2.3 6.02e-02 2.85e-02f  1
iter    objective    inf_pr   inf_du lg(mu)  ||d||  lg(rg) alpha_du alpha_pr  ls
  70 -1.2053285e+09 3.11e-15 1.02e+03  -1.0 2.65e+00   2.7 1.00e+00 2.02e-02f  1

Number of Iterations....: 70

                                   (scaled)                 (unscaled)
Objective...............:  -3.2142093683870365e+06   -1.2053285131451387e+09
Dual infeasibility......:   1.0245267864374655e+03    3.8419754491404956e+05
Constraint violation....:   3.1086244689504383e-15    3.1086244689504383e-15
Complementarity.........:   9.9459450652519067e+01    3.7297293994694650e+04
Overall NLP error.......:   2.8817079122270860e+02    3.8419754491404956e+05


Number of objective function evaluations             = 71
Number of objective gradient evaluations             = 71
Number of equality constraint evaluations            = 71
Number of inequality constraint evaluations          = 0
Number of equality constraint Jacobian evaluations   = 71
Number of inequality constraint Jacobian evaluations = 0
Number of Lagrangian Hessian evaluations             = 70
Total CPU secs in IPOPT (w/o function evaluations)   =    300.437
Total CPU secs in NLP function evaluations           =      0.310

EXIT: Maximum CPU time exceeded.

************************ CUTEst statistics ************************


 Package used            :  IPOPT
 Problem                 :  NCVXQP9   
 # variables             =           10000
 # constraints           =            7500
 # objective functions   =        0.1430000E+03
 # objective gradients   =        0.7200000E+02
 # objective Hessians    =        0.7100000E+02
 # Hessian-vector prdct  =        0.0000000E+00
 # constraints functions =        0.1440000E+03
 # constraints gradients =        0.7300000E+02
 # constraints Hessians  =        0.7100000E+02
 Exit code               =              -4
 Final f                 =   0.0000000E+00
 Set up time             =            0.25 seconds
 Solve time              =          760.58 seconds


******************************************************************

System Time =     190.2940063477 s.
